Cl Na
 1.0000000000000000
     5.6399999999999997    0.0000000000000000    0.0000000000000000
     0.0000000000000000    5.6399999999999997    0.0000000000000000
     0.0000000000000000    0.0000000000000000    5.6399999999999997
 Cl  Na 
   4   4
Direct
  0.5000000000000000  0.0000000000000000  0.0000000000000000
  0.5000000000000000  0.5000000000000000  0.5000000000000000
  0.0000000000000000  0.0000000000000000  0.5000000000000000
  0.0000000000000000  0.5000000000000000  0.0000000000000000
  0.0000000000000000  0.0000000000000000  0.0000000000000000
  0.0000000000000000  0.5000000000000000  0.5000000000000000
  0.5000000000000000  0.0000000000000000  0.5000000000000000
  0.5000000000000000  0.5000000000000000  0.0000000000000000
